AES/1_2_8/ssaes_r1-20_c2_rw1_e8_f0_k1-20_aes_1base_box_aes_mc_bidirectional/ExperimentMinisat_r14_k13cnf_2011-12-02-170711/Result
WARNING: for repeatability, setting FPU to use double precision
============================[ Problem Statistics ]=============================
|                                                                             |
|  Number of variables:          1168                                         |
|  Number of clauses:          187468                                         |
|  Parse time:                   0.11 s                                       |
|  Eliminated clauses:           0.01 Mb                                      |
|  Simplification time:          6.33 s                                       |
|                                                                             |
=============================[ Search Statistics ]==============================
| Conflicts  |          ORIGINAL         |          LEARNT          | Progress |
|            |    Vars  Clauses Literals |    Limit  Clauses Lit/Cl |          |
================================================================================
|        100 |     784   186476  1269784 |    68374      100     17 | 12.329 % |
|        250 |     784   186476  1269784 |    75211      250     20 | 12.329 % |
|        475 |     784   186476  1269784 |    82733      475     20 | 12.329 % |
|        812 |     784   186476  1269784 |    91006      812     21 | 12.329 % |
|       1318 |     784   186476  1269784 |   100107     1318     21 | 12.329 % |
|       2077 |     784   186476  1269784 |   110117     2077     21 | 12.329 % |
|       3216 |     784   186476  1269784 |   121129     3216     20 | 12.329 % |
|       4924 |     784   186476  1269784 |   133242     4924     20 | 12.329 % |
|       7486 |     784   186476  1269784 |   146566     7486     20 | 12.329 % |
|      11330 |     784   186476  1269784 |   161223    11330     19 | 12.329 % |
|      17096 |     784   186476  1269784 |   177345    17096     19 | 12.329 % |
|      25745 |     784   186476  1269784 |   195080    25745     19 | 12.329 % |
|      38719 |     784   186476  1269784 |   214588    38719     17 | 12.329 % |
===============================================================================
restarts              : 172
conflicts             : 55132          (465 /sec)
decisions             : 65119          (0.00 % random) (549 /sec)
propagations          : 16816157       (141704 /sec)
conflict literals     : 902092         (38.14 % deleted)
Memory used           : 32.00 MB
CPU time              : 118.671 s

SATISFIABLE
